0 4129
2 4114
4 4036
8 4013
9 3959
11 3913
18 3873
19 3859
25 3837
26 3816
29 3814
30 3789
32 3764
35 3716
39 3690
40 3649
42 3632
45 3620
57 3600
58 3540
62 3533
65 3531
73 3494
76 3464
92 3432
98 3411
102 3403
105 3348
109 3331
133 3314
151 3312
159 3298
205 3296
207 3267
212 3266
316 3257
558 3244
568 3241
570 3235
617 3229
625 3227
952 3207
1840 3204
2338 3202
2354 3200
2383 3186
3383 3180
3520 3179
4239 3178
4286 3176
4625 3175
4800 3174
4868 3173
4895 3164
4913 3163
23647 3159
23657 3158
23669 3156
23873 3155
23909 3150
24029 3148
24224 3147
24236 3142
24370 3141
24453 3136
24660 3135
34821 3129
35088 3128
35436 3125
35593 3124
36034 3122
41803 3119
41998 3117
42120 3111
151114 3108
321180 3101
321306 3099
321390 3091
321832 3090
322722 3088
322873 3086
322927 3085
342906 3084
342943 3083
354820 3080
